Route 1: 0 36 69 32 53 33 67 96 47 16 35 65 72 0
Route 2: 0 12 89 10 42 94 83 0
Route 3: 0 93 68 13 43 26 17 37 44 74 87 52 24 0
Route 4: 0 98 2 92 76 86 73 90 71 11 88 0
Route 5: 0 64 48 95 85 84 50 21 62 61 0
Route 6: 0 54 58 23 27 19 81 66 100 0
Route 7: 0 6 28 34 14 39 22 7 80 60 59 49 0
Route 8: 0 75 29 20 30 15 1 82 99 46 40 38 78 0
Route 9: 0 31 18 51 79 57 41 5 4 63 97 91 0
Route 10: 0 25 3 9 45 56 8 77 0
Route 11: 0 55 70 0
